Copyright (C) 2013-2015, Filipe Brandao
Build (method = -2)
  #dp: 4970
  Step-3' Graph: 90 vertices and 1601 arcs (0.00s)
  Step-4' Graph: 90 vertices and 1601 arcs (0.00s)
  #V4/#V3 = 1.00
  #A4/#A3 = 1.00
Ready! (0.00s)
Optimize a model with 171 rows, 1602 columns and 4631 nonzeros
Found heuristic solution: objective 165
Presolve removed 51 rows and 66 columns
Presolve time: 0.02s
Presolved: 120 rows, 1536 columns, 4445 nonzeros
Variable types: 0 continuous, 1536 integer (326 binary)
Optimize a model with 120 rows, 1536 columns and 4445 nonzeros
Presolved: 120 rows, 1536 columns, 4445 nonzeros

Root barrier log...

Ordering time: 0.00s

Barrier statistics:
 AA' NZ     : 3.168e+03
 Factor NZ  : 5.084e+03
 Factor Ops : 2.839e+05 (less than 1 second per iteration)
 Threads    : 1

                  Objective                Residual
Iter       Primal          Dual         Primal    Dual     Compl     Time
   0   1.66584135e+03 -6.75048393e+03  5.94e+03 6.19e-02  2.08e+01     0s
   1   5.76393536e+02 -2.97620962e+03  8.98e+02 4.44e-16  3.70e+00     0s
   2   2.50576332e+02 -1.32106091e+03  7.93e+01 2.05e-02  6.92e-01     0s
   3   1.77524591e+02 -1.88426873e+02  9.70e+00 2.82e-03  1.30e-01     0s
   4   1.38004803e+02 -5.69294416e+00  1.66e+00 8.85e-04  4.77e-02     0s
   5   1.23520535e+02  5.68125405e+01  8.59e-01 1.89e-04  2.20e-02     0s
   6   1.14660460e+02  7.76125224e+01  4.20e-01 2.65e-16  1.22e-02     0s
   7   1.09936159e+02  9.12815457e+01  2.16e-01 2.22e-16  6.11e-03     0s
   8   1.06401112e+02  9.92724419e+01  5.09e-02 2.46e-16  2.32e-03     0s
   9   1.05079569e+02  1.04087989e+02  7.26e-04 2.41e-16  3.20e-04     0s
  10   1.05001137e+02  1.04998425e+02  6.63e-07 3.05e-16  8.75e-07     0s
  11   1.05000000e+02  1.05000000e+02  1.07e-12 3.33e-16  1.29e-12     0s

Barrier solved model in 11 iterations and 0.01 seconds
Optimal objective 1.05000000e+02


Root relaxation: objective 1.050000e+02, 566 iterations, 0.01 seconds

    Nodes    |    Current Node    |     Objective Bounds      |     Work
 Expl Unexpl |  Obj  Depth IntInf | Incumbent    BestBd   Gap | It/Node Time

     0     0  105.00000    0    4  165.00000  105.00000  36.4%     -    0s
H    0     0                     106.0000000  105.00000  0.94%     -    0s
H    0     0                     105.0000000  105.00000  0.00%     -    0s

Explored 0 nodes (704 simplex iterations) in 0.03 seconds
Thread count was 1 (of 4 available processors)

Optimal solution found (tolerance 0.00e+00)
Best objective 1.050000000000e+02, best bound 1.050000000000e+02, gap 0.0%
Preprocessing time: 0.01 seconds
Gurobi run time: 0.03 seconds
Total run time: 0.04 seconds
Objective: 105
Solution:
1 x [i=1]
2 x [i=2]
3 x [i=3, i=80]
1 x [i=4]
1 x [i=5]
1 x [i=6]
1 x [i=6, i=76]
1 x [i=7]
2 x [i=8]
2 x [i=9, i=75]
2 x [i=9, i=76]
1 x [i=10, i=72]
1 x [i=10, i=78]
4 x [i=11]
1 x [i=11, i=73]
1 x [i=12]
1 x [i=13, i=69]
2 x [i=14, i=68]
1 x [i=15]
2 x [i=16, i=70]
2 x [i=16, i=79]
1 x [i=17, i=68]
1 x [i=17, i=69]
1 x [i=18, i=66]
2 x [i=18, i=77]
2 x [i=19, i=71]
3 x [i=20, i=65]
2 x [i=21, i=63]
1 x [i=21, i=65]
1 x [i=22, i=74]
2 x [i=23]
1 x [i=24, i=61]
1 x [i=24, i=67, i=81]
1 x [i=24, i=71, i=78]
1 x [i=24, i=72, i=81]
2 x [i=25, i=61]
1 x [i=25, i=62]
1 x [i=25, i=64]
1 x [i=25, i=65]
2 x [i=26, i=60]
2 x [i=27, i=58]
1 x [i=28, i=59]
1 x [i=29, i=58]
1 x [i=29, i=59]
4 x [i=30, i=57]
3 x [i=31, i=56]
1 x [i=31, i=57]
2 x [i=32, i=55]
1 x [i=33, i=54]
3 x [i=34, i=54]
1 x [i=35, i=52]
1 x [i=35, i=53]
2 x [i=36, i=52]
1 x [i=37, i=51]
2 x [i=38, i=49]
1 x [i=38, i=50]
3 x [i=39, i=48]
2 x [i=40, i=47]
2 x [i=41, i=47]
1 x [i=42, i=46]
2 x [i=42, i=47]
1 x [i=43, i=45]
1 x [i=44, i=53, i=74]
1 x [i=44, i=44]
1 x [i=45, i=54, i=74]
1 x [i=45, i=45]
1 x [i=46, i=48]
1 x [i=54, i=59, i=59]
1 x [i=56, i=57, i=59]
